50
68.0
0 49 1.26 1.31
1 48 0.78 1.26
2 47 3.32 2.84
3 46 1.24 1.3
4 45 1.25 1.3
5 44 0.77 1.25
6 43 1.28 1.32
7 42 3.17 2.74
8 41 1.23 1.29
9 40 1.24 1.3
10 39 1.27 1.31
11 38 0.79 1.26
12 37 3.32 2.84
13 36 1.24 1.29
14 35 1.25 1.3
15 34 0.78 1.25
16 33 1.29 1.33
17 32 3.33 2.84
18 31 1.23 1.29
19 30 1.24 1.3
20 29 1.28 1.32
21 28 0.8 1.27
22 27 3.33 2.84
23 26 1.25 1.29
24 25 1.26 1.3
25 24 0.78 1.26
26 23 1.31 1.34
27 22 3.33 2.84
28 21 1.23 1.29
29 20 1.24 1.3
30 19 1.29 1.33
31 18 0.82 1.29
32 17 3.33 2.84
33 16 1.25 1.29
34 15 1.27 1.31
35 14 0.8 1.27
36 13 1.37 1.37
37 12 2.8 2.5
38 11 1.22 1.27
39 10 1.24 1.3
40 9 1.36 1.36
41 8 0.9 1.35
42 7 3.34 2.83
43 6 1.27 1.27
44 5 1.32 1.32
45 4 0.9 1.35
46 3 1.8 1.6
47 2 3.4 2.8
48 1 1.0 1.0
